p cnf 15 35
-15 -14 4 0
-15 10 -8 0
-15 10 5 0
15 8 1 0
-15 7 -4 0
-15 7 2 0
15 -6 -1 0
-15 5 2 0
-14 -13 4 0
-14 10 -4 0
-13 12 5 0
-13 -11 -1 0
13 -9 -7 0
13 -9 4 0
-13 9 -4 0
13 6 3 0
12 -10 1 0
-12 9 2 0
12 -6 -2 0
-12 4 -2 0
12 4 -1 0
11 9 2 0
11 7 4 0
-11 6 -4 0
10 -9 -3 0
-10 7 -4 0
9 7 3 0
8 6 -4 0
8 3 2 0
7 4 -1 0
-7 -2 1 0
-6 5 1 0
-5 4 -3 0
5 4 -1 0
-3 2 -1 0
